\ Model Staff Scheduling Problem with Skill Levels and Shift Preferences
\ LP format - for model browsing. Use MPS format to capture full model detail.
Minimize
  31.92644988964668 x[0,0] + 32.71116319207626 x[0,1]
   + 32.60529272835612 x[0,2] + 31.94751325231546 x[0,3]
   + 32.3945062503492 x[0,4] + 31.96748293164174 x[0,5]
   + 31.92644988964668 x[0,6] + 32.71116319207626 x[0,7]
   + 10.83191170698227 x[1,0] + 10.83676404033269 x[1,1]
   + 11.13154345539545 x[1,2] + 10.70538337842858 x[1,3]
   + 10.63502306706075 x[1,4] + 10.93394569385609 x[1,5]
   + 10.83191170698227 x[1,6] + 10.83676404033269 x[1,7]
   + 42.24839034669414 x[2,0] + 42.16680990810454 x[2,1]
   + 41.51969225745263 x[2,2] + 42.099159141115 x[2,3]
   + 41.99915289646787 x[2,4] + 41.58201548367875 x[2,5]
   + 42.24839034669414 x[2,6] + 42.16680990810454 x[2,7]
   + 45.28052582753097 x[3,0] + 45.57290246543922 x[3,1]
   + 45.59995585961013 x[3,2] + 45.15831461183416 x[3,3]
   + 45.82602666674813 x[3,4] + 45.31195444002431 x[3,5]
   + 45.28052582753097 x[3,6] + 45.57290246543922 x[3,7]
   + 50.59509531581677 x[4,0] + 50.09477491703116 x[4,1]
   + 49.98548459281533 x[4,2] + 50.4900920947365 x[4,3]
   + 50.11531709353871 x[4,4] + 50.04010090943459 x[4,5]
   + 50.59509531581677 x[4,6] + 50.09477491703116 x[4,7]
   + 23.30319299258575 x[5,0] + 23.57860102619257 x[5,1]
   + 23.47667354689077 x[5,2] + 23.81421797007078 x[5,3]
   + 23.7840901601281 x[5,4] + 23.24473049456459 x[5,5]
   + 23.30319299258575 x[5,6] + 23.57860102619257 x[5,7]
   + 37.74110528796972 x[6,0] + 38.11045768708714 x[6,1]
   + 38.51768171747078 x[6,2] + 38.23950309578018 x[6,3]
   + 38.49558817703765 x[6,4] + 38.34069731831021 x[6,5]
   + 37.74110528796972 x[6,6] + 38.11045768708714 x[6,7]
   + 44.95277815717893 x[7,0] + 45.27605331149093 x[7,1]
   + 44.7021049979102 x[7,2] + 44.81565827467768 x[7,3]
   + 44.95085313272497 x[7,4] + 45.1934489115671 x[7,5]
   + 44.95277815717893 x[7,6] + 45.27605331149093 x[7,7]
   + 35.75287704197551 x[8,0] + 36.57582341340159 x[8,1]
   + 36.45671934357618 x[8,2] + 36.27876485828498 x[8,3]
   + 35.80837824947348 x[8,4] + 36.0714300741839 x[8,5]
   + 35.75287704197551 x[8,6] + 36.57582341340159 x[8,7]
   + 46.18357975426348 x[9,0] + 46.51847810910566 x[9,1]
   + 45.88290731541162 x[9,2] + 46.40594558755633 x[9,3]
   + 46.14770927502138 x[9,4] + 46.31250946907316 x[9,5]
   + 46.18357975426348 x[9,6] + 46.51847810910566 x[9,7]
   + 20.48956575288262 x[10,0] + 20.96155513708982 x[10,1]
   + 20.81524732685619 x[10,2] + 21.32465469720569 x[10,3]
   + 21.15598436617278 x[10,4] + 21.0347817213957 x[10,5]
   + 20.48956575288262 x[10,6] + 20.96155513708982 x[10,7]
   + 19.99570719751755 x[11,0] + 20.32165672302928 x[11,1]
   + 20.24631559532077 x[11,2] + 20.75698358860542 x[11,3]
   + 20.49436792812355 x[11,4] + 19.83286891384961 x[11,5]
   + 19.99570719751755 x[11,6] + 20.32165672302928 x[11,7]
   + 35.34328006586095 x[12,0] + 35.98288736776034 x[12,1]
   + 35.85211394010091 x[12,2] + 35.74229832294282 x[12,3]
   + 35.58860201948747 x[12,4] + 36.04083139135259 x[12,5]
   + 35.34328006586095 x[12,6] + 35.98288736776034 x[12,7]
   + 25.4243436654557 x[13,0] + 24.70174053759731 x[13,1]
   + 25.35826040773036 x[13,2] + 25.15209821404577 x[13,3]
   + 25.1996743627567 x[13,4] + 25.37089280843293 x[13,5]
   + 25.4243436654557 x[13,6] + 24.70174053759731 x[13,7]
   + 33.73514641318021 x[14,0] + 33.83626273397496 x[14,1]
   + 33.06148817776081 x[14,2] + 33.17089134092256 x[14,3]
   + 32.90844526100269 x[14,4] + 33.13348471412517 x[14,5]
   + 33.73514641318021 x[14,6] + 33.83626273397496 x[14,7]
   + 32.85692248225421 x[15,0] + 33.54904157205664 x[15,1]
   + 33.42701539932584 x[15,2] + 32.82731398684894 x[15,3]
   + 32.72672552095533 x[15,4] + 32.77419898267296 x[15,5]
   + 32.85692248225421 x[15,6] + 33.54904157205664 x[15,7]
   + 17.94834358986598 x[16,0] + 17.56377749042363 x[16,1]
   + 18.10480121873724 x[16,2] + 18.17135091682947 x[16,3]
   + 17.71380943619407 x[16,4] + 18.34225243284226 x[16,5]
   + 17.94834358986598 x[16,6] + 17.56377749042363 x[16,7]
   + 48.65222203988496 x[17,0] + 49.0511139833073 x[17,1]
   + 49.09599135454957 x[17,2] + 48.93408500690615 x[17,3]
   + 48.78388421230559 x[17,4] + 48.97057577908731 x[17,5]
   + 48.65222203988496 x[17,6] + 49.0511139833073 x[17,7]
   + 31.92644988964668 x[18,0] + 32.71116319207626 x[18,1]
   + 32.60529272835612 x[18,2] + 31.94751325231546 x[18,3]
   + 32.3945062503492 x[18,4] + 31.96748293164174 x[18,5]
   + 31.92644988964668 x[18,6] + 32.71116319207626 x[18,7]
Subject To
 shift_0_requirement: x[0,0] + x[1,0] + x[2,0] + x[3,0] + x[4,0] + x[5,0]
   + x[6,0] + x[7,0] + x[8,0] + x[9,0] + x[10,0] + x[11,0] + x[12,0]
   + x[13,0] + x[14,0] + x[15,0] + x[16,0] + x[17,0] + x[18,0] >= 1
 shift_1_requirement: x[0,1] + x[1,1] + x[2,1] + x[3,1] + x[4,1] + x[5,1]
   + x[6,1] + x[7,1] + x[8,1] + x[9,1] + x[10,1] + x[11,1] + x[12,1]
   + x[13,1] + x[14,1] + x[15,1] + x[16,1] + x[17,1] + x[18,1] >= 1
 shift_2_requirement: x[0,2] + x[1,2] + x[2,2] + x[3,2] + x[4,2] + x[5,2]
   + x[6,2] + x[7,2] + x[8,2] + x[9,2] + x[10,2] + x[11,2] + x[12,2]
   + x[13,2] + x[14,2] + x[15,2] + x[16,2] + x[17,2] + x[18,2] >= 1
 shift_3_requirement: x[0,3] + x[1,3] + x[2,3] + x[3,3] + x[4,3] + x[5,3]
   + x[6,3] + x[7,3] + x[8,3] + x[9,3] + x[10,3] + x[11,3] + x[12,3]
   + x[13,3] + x[14,3] + x[15,3] + x[16,3] + x[17,3] + x[18,3] >= 1
 shift_4_requirement: x[0,4] + x[1,4] + x[2,4] + x[3,4] + x[4,4] + x[5,4]
   + x[6,4] + x[7,4] + x[8,4] + x[9,4] + x[10,4] + x[11,4] + x[12,4]
   + x[13,4] + x[14,4] + x[15,4] + x[16,4] + x[17,4] + x[18,4] >= 1
 shift_5_requirement: x[0,5] + x[1,5] + x[2,5] + x[3,5] + x[4,5] + x[5,5]
   + x[6,5] + x[7,5] + x[8,5] + x[9,5] + x[10,5] + x[11,5] + x[12,5]
   + x[13,5] + x[14,5] + x[15,5] + x[16,5] + x[17,5] + x[18,5] >= 1
 shift_6_requirement: x[0,6] + x[1,6] + x[2,6] + x[3,6] + x[4,6] + x[5,6]
   + x[6,6] + x[7,6] + x[8,6] + x[9,6] + x[10,6] + x[11,6] + x[12,6]
   + x[13,6] + x[14,6] + x[15,6] + x[16,6] + x[17,6] + x[18,6] >= 1
 shift_7_requirement: x[0,7] + x[1,7] + x[2,7] + x[3,7] + x[4,7] + x[5,7]
   + x[6,7] + x[7,7] + x[8,7] + x[9,7] + x[10,7] + x[11,7] + x[12,7]
   + x[13,7] + x[14,7] + x[15,7] + x[16,7] + x[17,7] + x[18,7] >= 1
 availability_0_0: x[0,0] <= 100
 availability_0_1: x[0,1] <= 100
 availability_0_2: x[0,2] <= 100
 availability_0_3: x[0,3] <= 100
 availability_0_4: x[0,4] <= 100
 availability_0_5: x[0,5] <= 100
 availability_0_6: x[0,6] <= 100
 availability_0_7: x[0,7] <= 100
 availability_1_0: x[1,0] <= 100
 availability_1_1: x[1,1] <= 100
 availability_1_2: x[1,2] <= 100
 availability_1_3: x[1,3] <= 100
 availability_1_4: x[1,4] <= 100
 availability_1_5: x[1,5] <= 100
 availability_1_6: x[1,6] <= 100
 availability_1_7: x[1,7] <= 100
 availability_2_0: x[2,0] <= 100
 availability_2_1: x[2,1] <= 100
 availability_2_2: x[2,2] <= 100
 availability_2_3: x[2,3] <= 100
 availability_2_4: x[2,4] <= 100
 availability_2_5: x[2,5] <= 100
 availability_2_6: x[2,6] <= 100
 availability_2_7: x[2,7] <= 100
 availability_3_0: x[3,0] <= 100
 availability_3_1: x[3,1] <= 100
 availability_3_2: x[3,2] <= 100
 availability_3_3: x[3,3] <= 100
 availability_3_4: x[3,4] <= 100
 availability_3_5: x[3,5] <= 100
 availability_3_6: x[3,6] <= 100
 availability_3_7: x[3,7] <= 100
 availability_4_0: x[4,0] <= 100
 availability_4_1: x[4,1] <= 100
 availability_4_2: x[4,2] <= 100
 availability_4_3: x[4,3] <= 100
 availability_4_4: x[4,4] <= 100
 availability_4_5: x[4,5] <= 100
 availability_4_6: x[4,6] <= 100
 availability_4_7: x[4,7] <= 100
 availability_5_0: x[5,0] <= 100
 availability_5_1: x[5,1] <= 100
 availability_5_2: x[5,2] <= 100
 availability_5_3: x[5,3] <= 100
 availability_5_4: x[5,4] <= 100
 availability_5_5: x[5,5] <= 100
 availability_5_6: x[5,6] <= 100
 availability_5_7: x[5,7] <= 100
 availability_6_0: x[6,0] <= 100
 availability_6_1: x[6,1] <= 100
 availability_6_2: x[6,2] <= 100
 availability_6_3: x[6,3] <= 100
 availability_6_4: x[6,4] <= 100
 availability_6_5: x[6,5] <= 100
 availability_6_6: x[6,6] <= 100
 availability_6_7: x[6,7] <= 100
 availability_7_0: x[7,0] <= 100
 availability_7_1: x[7,1] <= 100
 availability_7_2: x[7,2] <= 100
 availability_7_3: x[7,3] <= 100
 availability_7_4: x[7,4] <= 100
 availability_7_5: x[7,5] <= 100
 availability_7_6: x[7,6] <= 100
 availability_7_7: x[7,7] <= 100
 availability_8_0: x[8,0] <= 100
 availability_8_1: x[8,1] <= 100
 availability_8_2: x[8,2] <= 100
 availability_8_3: x[8,3] <= 100
 availability_8_4: x[8,4] <= 100
 availability_8_5: x[8,5] <= 100
 availability_8_6: x[8,6] <= 100
 availability_8_7: x[8,7] <= 100
 availability_9_0: x[9,0] <= 100
 availability_9_1: x[9,1] <= 100
 availability_9_2: x[9,2] <= 100
 availability_9_3: x[9,3] <= 100
 availability_9_4: x[9,4] <= 100
 availability_9_5: x[9,5] <= 100
 availability_9_6: x[9,6] <= 100
 availability_9_7: x[9,7] <= 100
 availability_10_0: x[10,0] <= 100
 availability_10_1: x[10,1] <= 100
 availability_10_2: x[10,2] <= 100
 availability_10_3: x[10,3] <= 100
 availability_10_4: x[10,4] <= 100
 availability_10_5: x[10,5] <= 100
 availability_10_6: x[10,6] <= 100
 availability_10_7: x[10,7] <= 100
 availability_11_0: x[11,0] <= 100
 availability_11_1: x[11,1] <= 100
 availability_11_2: x[11,2] <= 100
 availability_11_3: x[11,3] <= 100
 availability_11_4: x[11,4] <= 100
 availability_11_5: x[11,5] <= 100
 availability_11_6: x[11,6] <= 100
 availability_11_7: x[11,7] <= 100
 availability_12_0: x[12,0] <= 100
 availability_12_1: x[12,1] <= 100
 availability_12_2: x[12,2] <= 100
 availability_12_3: x[12,3] <= 100
 availability_12_4: x[12,4] <= 100
 availability_12_5: x[12,5] <= 100
 availability_12_6: x[12,6] <= 100
 availability_12_7: x[12,7] <= 100
 availability_13_0: x[13,0] <= 100
 availability_13_1: x[13,1] <= 100
 availability_13_2: x[13,2] <= 100
 availability_13_3: x[13,3] <= 100
 availability_13_4: x[13,4] <= 100
 availability_13_5: x[13,5] <= 100
 availability_13_6: x[13,6] <= 100
 availability_13_7: x[13,7] <= 100
 availability_14_0: x[14,0] <= 100
 availability_14_1: x[14,1] <= 100
 availability_14_2: x[14,2] <= 100
 availability_14_3: x[14,3] <= 100
 availability_14_4: x[14,4] <= 100
 availability_14_5: x[14,5] <= 100
 availability_14_6: x[14,6] <= 100
 availability_14_7: x[14,7] <= 100
 availability_15_0: x[15,0] <= 100
 availability_15_1: x[15,1] <= 100
 availability_15_2: x[15,2] <= 100
 availability_15_3: x[15,3] <= 100
 availability_15_4: x[15,4] <= 100
 availability_15_5: x[15,5] <= 100
 availability_15_6: x[15,6] <= 100
 availability_15_7: x[15,7] <= 100
 availability_16_0: x[16,0] <= 100
 availability_16_1: x[16,1] <= 100
 availability_16_2: x[16,2] <= 100
 availability_16_3: x[16,3] <= 100
 availability_16_4: x[16,4] <= 100
 availability_16_5: x[16,5] <= 100
 availability_16_6: x[16,6] <= 100
 availability_16_7: x[16,7] <= 100
 availability_17_0: x[17,0] <= 100
 availability_17_1: x[17,1] <= 100
 availability_17_2: x[17,2] <= 100
 availability_17_3: x[17,3] <= 100
 availability_17_4: x[17,4] <= 100
 availability_17_5: x[17,5] <= 100
 availability_17_6: x[17,6] <= 100
 availability_17_7: x[17,7] <= 100
 availability_18_0: x[18,0] <= 100
 availability_18_1: x[18,1] <= 100
 availability_18_2: x[18,2] <= 100
 availability_18_3: x[18,3] <= 100
 availability_18_4: x[18,4] <= 100
 availability_18_5: x[18,5] <= 100
 availability_18_6: x[18,6] <= 100
 availability_18_7: x[18,7] <= 100
 shift_0_task_0_skill_requirement: 10 x[0,0] + 10 x[1,0] + 10 x[2,0]
   + 10 x[3,0] + 10 x[4,0] + 10 x[5,0] + 10 x[6,0] + 10 x[7,0] + 10 x[8,0]
   + 10 x[9,0] + 10 x[10,0] + 10 x[11,0] + 10 x[12,0] + 10 x[13,0]
   + 10 x[14,0] + 10 x[15,0] + 10 x[16,0] + 10 x[17,0] + 10 x[18,0] >= 1
 shift_0_task_1_skill_requirement: 10 x[0,0] + 10 x[1,0] + 10 x[2,0]
   + 10 x[3,0] + 10 x[4,0] + 10 x[5,0] + 10 x[6,0] + 10 x[7,0] + 10 x[8,0]
   + 10 x[9,0] + 10 x[10,0] + 10 x[11,0] + 10 x[12,0] + 10 x[13,0]
   + 10 x[14,0] + 10 x[15,0] + 10 x[16,0] + 10 x[17,0] + 10 x[18,0] >= 1
 shift_0_task_2_skill_requirement: 10 x[0,0] + 10 x[1,0] + 10 x[2,0]
   + 10 x[3,0] + 10 x[4,0] + 10 x[5,0] + 10 x[6,0] + 10 x[7,0] + 10 x[8,0]
   + 10 x[9,0] + 10 x[10,0] + 10 x[11,0] + 10 x[12,0] + 10 x[13,0]
   + 10 x[14,0] + 10 x[15,0] + 10 x[16,0] + 10 x[17,0] + 10 x[18,0] >= 1
 shift_1_task_0_skill_requirement: 10 x[0,1] + 10 x[1,1] + 10 x[2,1]
   + 10 x[3,1] + 10 x[4,1] + 10 x[5,1] + 10 x[6,1] + 10 x[7,1] + 10 x[8,1]
   + 10 x[9,1] + 10 x[10,1] + 10 x[11,1] + 10 x[12,1] + 10 x[13,1]
   + 10 x[14,1] + 10 x[15,1] + 10 x[16,1] + 10 x[17,1] + 10 x[18,1] >= 1
 shift_1_task_1_skill_requirement: 10 x[0,1] + 10 x[1,1] + 10 x[2,1]
   + 10 x[3,1] + 10 x[4,1] + 10 x[5,1] + 10 x[6,1] + 10 x[7,1] + 10 x[8,1]
   + 10 x[9,1] + 10 x[10,1] + 10 x[11,1] + 10 x[12,1] + 10 x[13,1]
   + 10 x[14,1] + 10 x[15,1] + 10 x[16,1] + 10 x[17,1] + 10 x[18,1] >= 1
 shift_1_task_2_skill_requirement: 10 x[0,1] + 10 x[1,1] + 10 x[2,1]
   + 10 x[3,1] + 10 x[4,1] + 10 x[5,1] + 10 x[6,1] + 10 x[7,1] + 10 x[8,1]
   + 10 x[9,1] + 10 x[10,1] + 10 x[11,1] + 10 x[12,1] + 10 x[13,1]
   + 10 x[14,1] + 10 x[15,1] + 10 x[16,1] + 10 x[17,1] + 10 x[18,1] >= 1
 shift_2_task_0_skill_requirement: 10 x[0,2] + 10 x[1,2] + 10 x[2,2]
   + 10 x[3,2] + 10 x[4,2] + 10 x[5,2] + 10 x[6,2] + 10 x[7,2] + 10 x[8,2]
   + 10 x[9,2] + 10 x[10,2] + 10 x[11,2] + 10 x[12,2] + 10 x[13,2]
   + 10 x[14,2] + 10 x[15,2] + 10 x[16,2] + 10 x[17,2] + 10 x[18,2] >= 1
 shift_2_task_1_skill_requirement: 10 x[0,2] + 10 x[1,2] + 10 x[2,2]
   + 10 x[3,2] + 10 x[4,2] + 10 x[5,2] + 10 x[6,2] + 10 x[7,2] + 10 x[8,2]
   + 10 x[9,2] + 10 x[10,2] + 10 x[11,2] + 10 x[12,2] + 10 x[13,2]
   + 10 x[14,2] + 10 x[15,2] + 10 x[16,2] + 10 x[17,2] + 10 x[18,2] >= 1
 shift_2_task_2_skill_requirement: 10 x[0,2] + 10 x[1,2] + 10 x[2,2]
   + 10 x[3,2] + 10 x[4,2] + 10 x[5,2] + 10 x[6,2] + 10 x[7,2] + 10 x[8,2]
   + 10 x[9,2] + 10 x[10,2] + 10 x[11,2] + 10 x[12,2] + 10 x[13,2]
   + 10 x[14,2] + 10 x[15,2] + 10 x[16,2] + 10 x[17,2] + 10 x[18,2] >= 1
 shift_3_task_0_skill_requirement: 10 x[0,3] + 10 x[1,3] + 10 x[2,3]
   + 10 x[3,3] + 10 x[4,3] + 10 x[5,3] + 10 x[6,3] + 10 x[7,3] + 10 x[8,3]
   + 10 x[9,3] + 10 x[10,3] + 10 x[11,3] + 10 x[12,3] + 10 x[13,3]
   + 10 x[14,3] + 10 x[15,3] + 10 x[16,3] + 10 x[17,3] + 10 x[18,3] >= 1
 shift_3_task_1_skill_requirement: 10 x[0,3] + 10 x[1,3] + 10 x[2,3]
   + 10 x[3,3] + 10 x[4,3] + 10 x[5,3] + 10 x[6,3] + 10 x[7,3] + 10 x[8,3]
   + 10 x[9,3] + 10 x[10,3] + 10 x[11,3] + 10 x[12,3] + 10 x[13,3]
   + 10 x[14,3] + 10 x[15,3] + 10 x[16,3] + 10 x[17,3] + 10 x[18,3] >= 1
 shift_3_task_2_skill_requirement: 10 x[0,3] + 10 x[1,3] + 10 x[2,3]
   + 10 x[3,3] + 10 x[4,3] + 10 x[5,3] + 10 x[6,3] + 10 x[7,3] + 10 x[8,3]
   + 10 x[9,3] + 10 x[10,3] + 10 x[11,3] + 10 x[12,3] + 10 x[13,3]
   + 10 x[14,3] + 10 x[15,3] + 10 x[16,3] + 10 x[17,3] + 10 x[18,3] >= 1
 shift_4_task_0_skill_requirement: 10 x[0,4] + 10 x[1,4] + 10 x[2,4]
   + 10 x[3,4] + 10 x[4,4] + 10 x[5,4] + 10 x[6,4] + 10 x[7,4] + 10 x[8,4]
   + 10 x[9,4] + 10 x[10,4] + 10 x[11,4] + 10 x[12,4] + 10 x[13,4]
   + 10 x[14,4] + 10 x[15,4] + 10 x[16,4] + 10 x[17,4] + 10 x[18,4] >= 1
 shift_4_task_1_skill_requirement: 10 x[0,4] + 10 x[1,4] + 10 x[2,4]
   + 10 x[3,4] + 10 x[4,4] + 10 x[5,4] + 10 x[6,4] + 10 x[7,4] + 10 x[8,4]
   + 10 x[9,4] + 10 x[10,4] + 10 x[11,4] + 10 x[12,4] + 10 x[13,4]
   + 10 x[14,4] + 10 x[15,4] + 10 x[16,4] + 10 x[17,4] + 10 x[18,4] >= 1
 shift_4_task_2_skill_requirement: 10 x[0,4] + 10 x[1,4] + 10 x[2,4]
   + 10 x[3,4] + 10 x[4,4] + 10 x[5,4] + 10 x[6,4] + 10 x[7,4] + 10 x[8,4]
   + 10 x[9,4] + 10 x[10,4] + 10 x[11,4] + 10 x[12,4] + 10 x[13,4]
   + 10 x[14,4] + 10 x[15,4] + 10 x[16,4] + 10 x[17,4] + 10 x[18,4] >= 1
 shift_5_task_0_skill_requirement: 10 x[0,5] + 10 x[1,5] + 10 x[2,5]
   + 10 x[3,5] + 10 x[4,5] + 10 x[5,5] + 10 x[6,5] + 10 x[7,5] + 10 x[8,5]
   + 10 x[9,5] + 10 x[10,5] + 10 x[11,5] + 10 x[12,5] + 10 x[13,5]
   + 10 x[14,5] + 10 x[15,5] + 10 x[16,5] + 10 x[17,5] + 10 x[18,5] >= 1
 shift_5_task_1_skill_requirement: 10 x[0,5] + 10 x[1,5] + 10 x[2,5]
   + 10 x[3,5] + 10 x[4,5] + 10 x[5,5] + 10 x[6,5] + 10 x[7,5] + 10 x[8,5]
   + 10 x[9,5] + 10 x[10,5] + 10 x[11,5] + 10 x[12,5] + 10 x[13,5]
   + 10 x[14,5] + 10 x[15,5] + 10 x[16,5] + 10 x[17,5] + 10 x[18,5] >= 1
 shift_5_task_2_skill_requirement: 10 x[0,5] + 10 x[1,5] + 10 x[2,5]
   + 10 x[3,5] + 10 x[4,5] + 10 x[5,5] + 10 x[6,5] + 10 x[7,5] + 10 x[8,5]
   + 10 x[9,5] + 10 x[10,5] + 10 x[11,5] + 10 x[12,5] + 10 x[13,5]
   + 10 x[14,5] + 10 x[15,5] + 10 x[16,5] + 10 x[17,5] + 10 x[18,5] >= 1
 shift_6_task_0_skill_requirement: 10 x[0,6] + 10 x[1,6] + 10 x[2,6]
   + 10 x[3,6] + 10 x[4,6] + 10 x[5,6] + 10 x[6,6] + 10 x[7,6] + 10 x[8,6]
   + 10 x[9,6] + 10 x[10,6] + 10 x[11,6] + 10 x[12,6] + 10 x[13,6]
   + 10 x[14,6] + 10 x[15,6] + 10 x[16,6] + 10 x[17,6] + 10 x[18,6] >= 1
 shift_6_task_1_skill_requirement: 10 x[0,6] + 10 x[1,6] + 10 x[2,6]
   + 10 x[3,6] + 10 x[4,6] + 10 x[5,6] + 10 x[6,6] + 10 x[7,6] + 10 x[8,6]
   + 10 x[9,6] + 10 x[10,6] + 10 x[11,6] + 10 x[12,6] + 10 x[13,6]
   + 10 x[14,6] + 10 x[15,6] + 10 x[16,6] + 10 x[17,6] + 10 x[18,6] >= 1
 shift_6_task_2_skill_requirement: 10 x[0,6] + 10 x[1,6] + 10 x[2,6]
   + 10 x[3,6] + 10 x[4,6] + 10 x[5,6] + 10 x[6,6] + 10 x[7,6] + 10 x[8,6]
   + 10 x[9,6] + 10 x[10,6] + 10 x[11,6] + 10 x[12,6] + 10 x[13,6]
   + 10 x[14,6] + 10 x[15,6] + 10 x[16,6] + 10 x[17,6] + 10 x[18,6] >= 1
 shift_7_task_0_skill_requirement: 10 x[0,7] + 10 x[1,7] + 10 x[2,7]
   + 10 x[3,7] + 10 x[4,7] + 10 x[5,7] + 10 x[6,7] + 10 x[7,7] + 10 x[8,7]
   + 10 x[9,7] + 10 x[10,7] + 10 x[11,7] + 10 x[12,7] + 10 x[13,7]
   + 10 x[14,7] + 10 x[15,7] + 10 x[16,7] + 10 x[17,7] + 10 x[18,7] >= 1
 shift_7_task_1_skill_requirement: 10 x[0,7] + 10 x[1,7] + 10 x[2,7]
   + 10 x[3,7] + 10 x[4,7] + 10 x[5,7] + 10 x[6,7] + 10 x[7,7] + 10 x[8,7]
   + 10 x[9,7] + 10 x[10,7] + 10 x[11,7] + 10 x[12,7] + 10 x[13,7]
   + 10 x[14,7] + 10 x[15,7] + 10 x[16,7] + 10 x[17,7] + 10 x[18,7] >= 1
 shift_7_task_2_skill_requirement: 10 x[0,7] + 10 x[1,7] + 10 x[2,7]
   + 10 x[3,7] + 10 x[4,7] + 10 x[5,7] + 10 x[6,7] + 10 x[7,7] + 10 x[8,7]
   + 10 x[9,7] + 10 x[10,7] + 10 x[11,7] + 10 x[12,7] + 10 x[13,7]
   + 10 x[14,7] + 10 x[15,7] + 10 x[16,7] + 10 x[17,7] + 10 x[18,7] >= 1
Bounds
End
